data/solutions/recovery/wellformed/moderate/flexible/wellformed_moderate_instance76/53.sol
Elapsed time: 0.04
Upper bound: 1866.0
Planning weighted value: 119234.0
C[0]=1866.0
C[1]=1859.0
C[2]=1853.0
C[3]=1853.0
C[4]=1850.0
C[5]=0.0
y[0]=1
y[1]=0
y[2]=0
y[3]=1
y[4]=1
y[5]=0
y[6]=0
y[7]=3
y[8]=4
y[9]=1
y[10]=2
y[11]=2
y[12]=3
y[13]=3
y[14]=0
y[15]=4
y[16]=4
y[17]=2
y[18]=1
y[19]=1
