data/solutions/recovery/wellformed/moderate/flexible/wellformed_moderate_instance76/53.log

Log started (V12.6.3.0) Fri Apr 20 20:56:43 2018

New value for default parallel thread count: 1

Problem '/tmp/tmp1Wolye.pyomo.lp' read.
Read time = 0.00 sec. (0.03 ticks)

Problem name         : /tmp/tmp1Wolye.pyomo.lp
Objective sense      : Minimize
Variables            :     128  [Nneg: 1,  Binary: 120,  General Integer: 7]
Objective nonzeros   :       1
Linear constraints   :      54  [Less: 26,  Equal: 28]
  Nonzeros           :    1973
  RHS nonzeros       :      41

Variables            : Min LB: 0.000000         Max UB: 1.000000       
Objective nonzeros   : Min   : 1.000000         Max   : 1.000000       
Linear constraints   :
  Nonzeros           : Min   : 1.000000         Max   : 971.0000       
  RHS nonzeros       : Min   : 1.000000         Max   : 2.000000       
Tried aggregator 2 times.
MIP Presolve eliminated 23 rows and 26 columns.
Aggregator did 6 substitutions.
Reduced MIP has 25 rows, 96 columns, and 259 nonzeros.
Reduced MIP has 95 binaries, 1 generals, 0 SOSs, and 0 indicators.
Presolve time = 0.00 sec. (0.74 ticks)
Found incumbent of value 9281.000000 after 0.00 sec. (0.91 ticks)
Probing time = 0.00 sec. (0.08 ticks)
Cover probing fixed 0 vars, tightened 3 bounds.
Tried aggregator 1 time.
Reduced MIP has 25 rows, 96 columns, and 259 nonzeros.
Reduced MIP has 95 binaries, 1 generals, 0 SOSs, and 0 indicators.
Presolve time = 0.00 sec. (0.17 ticks)
Probing time = 0.00 sec. (0.06 ticks)
Clique table members: 19.
MIP emphasis: balance optimality and feasibility.
MIP search method: dynamic search.
Parallel mode: none, using 1 thread.
Root relaxation solution time = 0.00 sec. (0.08 ticks)

        Nodes                                         Cuts/
   Node  Left     Objective  IInf  Best Integer    Best Bound    ItCnt     Gap

*     0+    0                         9281.0000      971.0000            89.54%
      0     0     1856.2000     8     9281.0000     1856.2000        8   80.00%
*     0+    0                         2064.0000     1856.2000            10.07%
      0     0     1857.0000    13     2064.0000       Cuts: 5       24   10.03%
      0     0     1857.0000    12     2064.0000      Cuts: 16       42   10.03%
*     0+    0                         1987.0000     1857.0000             6.54%
      0     0     1857.0000     9     1987.0000       Cuts: 3       54    6.54%
*     0+    0                         1973.0000     1857.0000             5.88%
      0     0     1857.0000    14     1973.0000      Cuts: 12       80    5.88%
*     0+    0                         1923.0000     1857.0000             3.43%
      0     2     1857.0000     9     1923.0000     1857.0000       80    3.43%
Elapsed time = 0.01 sec. (8.90 ticks, tree = 0.01 MB, solutions = 5)
*    20+    5                         1867.0000     1857.0000             0.54%
*   190+   24                         1866.0000     1857.0000             0.48%

Mixed integer rounding cuts applied:  3
Gomory fractional cuts applied:  2

Root node processing (before b&c):
  Real time             =    0.01 sec. (8.90 ticks)
Sequential b&c:
  Real time             =    0.02 sec. (12.95 ticks)
                          ------------
Total (root+branch&cut) =    0.03 sec. (21.85 ticks)

Solution pool: 7 solutions saved.

MIP - Integer optimal solution:  Objective =  1.8660000000e+03
Solution time =    0.03 sec.  Iterations = 1557  Nodes = 372
Deterministic time = 21.85 ticks  (670.18 ticks/sec)


Incumbent solution written to file '/tmp/tmpa_mbP9.cplex.sol'.
